c File: flat75_3_0.col
c
c SOURCE: Joseph Culberson (joe@cs.ualberta.ca)
c DESCRIPTION: Quasi-random coloring problem
c              generated with flatness = 0
c                             probability = 0.096
c                             known coloring = 3
c                             random seed = 1065
c              Creation Date:  Wed Feb 24 10:42:06 1999
c Maximum degree = 8 Minimum degree = 0
c COLOR VERIFICATION: Using the permuted order
c under simple greedy yields the specified
c coloring number
c Color = 3 specified partitions = 3
c p edge 75 180
c cnf created by edge2cnf
p cnf 225 840
-1 -2 0
-1 -3 0
-2 -3 0
1 2 3 0
-4 -5 0
-4 -6 0
-5 -6 0
4 5 6 0
-7 -8 0
-7 -9 0
-8 -9 0
7 8 9 0
-10 -11 0
-10 -12 0
-11 -12 0
10 11 12 0
-13 -14 0
-13 -15 0
-14 -15 0
13 14 15 0
-16 -17 0
-16 -18 0
-17 -18 0
16 17 18 0
-19 -20 0
-19 -21 0
-20 -21 0
19 20 21 0
-22 -23 0
-22 -24 0
-23 -24 0
22 23 24 0
-25 -26 0
-25 -27 0
-26 -27 0
25 26 27 0
-28 -29 0
-28 -30 0
-29 -30 0
28 29 30 0
-31 -32 0
-31 -33 0
-32 -33 0
31 32 33 0
-34 -35 0
-34 -36 0
-35 -36 0
34 35 36 0
-37 -38 0
-37 -39 0
-38 -39 0
37 38 39 0
-40 -41 0
-40 -42 0
-41 -42 0
40 41 42 0
-43 -44 0
-43 -45 0
-44 -45 0
43 44 45 0
-46 -47 0
-46 -48 0
-47 -48 0
46 47 48 0
-49 -50 0
-49 -51 0
-50 -51 0
49 50 51 0
-52 -53 0
-52 -54 0
-53 -54 0
52 53 54 0
-55 -56 0
-55 -57 0
-56 -57 0
55 56 57 0
-58 -59 0
-58 -60 0
-59 -60 0
58 59 60 0
-61 -62 0
-61 -63 0
-62 -63 0
61 62 63 0
-64 -65 0
-64 -66 0
-65 -66 0
64 65 66 0
-67 -68 0
-67 -69 0
-68 -69 0
67 68 69 0
-70 -71 0
-70 -72 0
-71 -72 0
70 71 72 0
-73 -74 0
-73 -75 0
-74 -75 0
73 74 75 0
-76 -77 0
-76 -78 0
-77 -78 0
76 77 78 0
-79 -80 0
-79 -81 0
-80 -81 0
79 80 81 0
-82 -83 0
-82 -84 0
-83 -84 0
82 83 84 0
-85 -86 0
-85 -87 0
-86 -87 0
85 86 87 0
-88 -89 0
-88 -90 0
-89 -90 0
88 89 90 0
-91 -92 0
-91 -93 0
-92 -93 0
91 92 93 0
-94 -95 0
-94 -96 0
-95 -96 0
94 95 96 0
-97 -98 0
-97 -99 0
-98 -99 0
97 98 99 0
-100 -101 0
-100 -102 0
-101 -102 0
100 101 102 0
-103 -104 0
-103 -105 0
-104 -105 0
103 104 105 0
-106 -107 0
-106 -108 0
-107 -108 0
106 107 108 0
-109 -110 0
-109 -111 0
-110 -111 0
109 110 111 0
-112 -113 0
-112 -114 0
-113 -114 0
112 113 114 0
-115 -116 0
-115 -117 0
-116 -117 0
115 116 117 0
-118 -119 0
-118 -120 0
-119 -120 0
118 119 120 0
-121 -122 0
-121 -123 0
-122 -123 0
121 122 123 0
-124 -125 0
-124 -126 0
-125 -126 0
124 125 126 0
-127 -128 0
-127 -129 0
-128 -129 0
127 128 129 0
-130 -131 0
-130 -132 0
-131 -132 0
130 131 132 0
-133 -134 0
-133 -135 0
-134 -135 0
133 134 135 0
-136 -137 0
-136 -138 0
-137 -138 0
136 137 138 0
-139 -140 0
-139 -141 0
-140 -141 0
139 140 141 0
-142 -143 0
-142 -144 0
-143 -144 0
142 143 144 0
-145 -146 0
-145 -147 0
-146 -147 0
145 146 147 0
-148 -149 0
-148 -150 0
-149 -150 0
148 149 150 0
-151 -152 0
-151 -153 0
-152 -153 0
151 152 153 0
-154 -155 0
-154 -156 0
-155 -156 0
154 155 156 0
-157 -158 0
-157 -159 0
-158 -159 0
157 158 159 0
-160 -161 0
-160 -162 0
-161 -162 0
160 161 162 0
-163 -164 0
-163 -165 0
-164 -165 0
163 164 165 0
-166 -167 0
-166 -168 0
-167 -168 0
166 167 168 0
-169 -170 0
-169 -171 0
-170 -171 0
169 170 171 0
-172 -173 0
-172 -174 0
-173 -174 0
172 173 174 0
-175 -176 0
-175 -177 0
-176 -177 0
175 176 177 0
-178 -179 0
-178 -180 0
-179 -180 0
178 179 180 0
-181 -182 0
-181 -183 0
-182 -183 0
181 182 183 0
-184 -185 0
-184 -186 0
-185 -186 0
184 185 186 0
-187 -188 0
-187 -189 0
-188 -189 0
187 188 189 0
-190 -191 0
-190 -192 0
-191 -192 0
190 191 192 0
-193 -194 0
-193 -195 0
-194 -195 0
193 194 195 0
-196 -197 0
-196 -198 0
-197 -198 0
196 197 198 0
-199 -200 0
-199 -201 0
-200 -201 0
199 200 201 0
-202 -203 0
-202 -204 0
-203 -204 0
202 203 204 0
-205 -206 0
-205 -207 0
-206 -207 0
205 206 207 0
-208 -209 0
-208 -210 0
-209 -210 0
208 209 210 0
-211 -212 0
-211 -213 0
-212 -213 0
211 212 213 0
-214 -215 0
-214 -216 0
-215 -216 0
214 215 216 0
-217 -218 0
-217 -219 0
-218 -219 0
217 218 219 0
-220 -221 0
-220 -222 0
-221 -222 0
220 221 222 0
-223 -224 0
-223 -225 0
-224 -225 0
223 224 225 0
-106 -1 0
-107 -2 0
-108 -3 0
-109 -1 0
-110 -2 0
-111 -3 0
-202 -1 0
-203 -2 0
-204 -3 0
-223 -1 0
-224 -2 0
-225 -3 0
-19 -4 0
-20 -5 0
-21 -6 0
-28 -4 0
-29 -5 0
-30 -6 0
-97 -4 0
-98 -5 0
-99 -6 0
-139 -4 0
-140 -5 0
-141 -6 0
-178 -4 0
-179 -5 0
-180 -6 0
-193 -4 0
-194 -5 0
-195 -6 0
-52 -7 0
-53 -8 0
-54 -9 0
-190 -7 0
-191 -8 0
-192 -9 0
-91 -10 0
-92 -11 0
-93 -12 0
-103 -10 0
-104 -11 0
-105 -12 0
-178 -10 0
-179 -11 0
-180 -12 0
-22 -13 0
-23 -14 0
-24 -15 0
-64 -13 0
-65 -14 0
-66 -15 0
-79 -13 0
-80 -14 0
-81 -15 0
-88 -13 0
-89 -14 0
-90 -15 0
-181 -13 0
-182 -14 0
-183 -15 0
-67 -16 0
-68 -17 0
-69 -18 0
-82 -16 0
-83 -17 0
-84 -18 0
-205 -16 0
-206 -17 0
-207 -18 0
-25 -19 0
-26 -20 0
-27 -21 0
-82 -19 0
-83 -20 0
-84 -21 0
-208 -19 0
-209 -20 0
-210 -21 0
-28 -22 0
-29 -23 0
-30 -24 0
-79 -22 0
-80 -23 0
-81 -24 0
-199 -22 0
-200 -23 0
-201 -24 0
-205 -22 0
-206 -23 0
-207 -24 0
-43 -25 0
-44 -26 0
-45 -27 0
-181 -25 0
-182 -26 0
-183 -27 0
-100 -28 0
-101 -29 0
-102 -30 0
-109 -28 0
-110 -29 0
-111 -30 0
-157 -28 0
-158 -29 0
-159 -30 0
-166 -28 0
-167 -29 0
-168 -30 0
-169 -28 0
-170 -29 0
-171 -30 0
-214 -28 0
-215 -29 0
-216 -30 0
-43 -31 0
-44 -32 0
-45 -33 0
-91 -31 0
-92 -32 0
-93 -33 0
-160 -31 0
-161 -32 0
-162 -33 0
-190 -31 0
-191 -32 0
-192 -33 0
-202 -31 0
-203 -32 0
-204 -33 0
-214 -31 0
-215 -32 0
-216 -33 0
-217 -31 0
-218 -32 0
-219 -33 0
-61 -34 0
-62 -35 0
-63 -36 0
-115 -34 0
-116 -35 0
-117 -36 0
-169 -34 0
-170 -35 0
-171 -36 0
-127 -37 0
-128 -38 0
-129 -39 0
-193 -37 0
-194 -38 0
-195 -39 0
-199 -37 0
-200 -38 0
-201 -39 0
-217 -37 0
-218 -38 0
-219 -39 0
-70 -40 0
-71 -41 0
-72 -42 0
-85 -40 0
-86 -41 0
-87 -42 0
-88 -40 0
-89 -41 0
-90 -42 0
-103 -40 0
-104 -41 0
-105 -42 0
-109 -40 0
-110 -41 0
-111 -42 0
-187 -40 0
-188 -41 0
-189 -42 0
-64 -43 0
-65 -44 0
-66 -45 0
-154 -43 0
-155 -44 0
-156 -45 0
-190 -43 0
-191 -44 0
-192 -45 0
-82 -46 0
-83 -47 0
-84 -48 0
-193 -46 0
-194 -47 0
-195 -48 0
-52 -49 0
-53 -50 0
-54 -51 0
-202 -52 0
-203 -53 0
-204 -54 0
-220 -52 0
-221 -53 0
-222 -54 0
-70 -55 0
-71 -56 0
-72 -57 0
-82 -55 0
-83 -56 0
-84 -57 0
-211 -55 0
-212 -56 0
-213 -57 0
-217 -55 0
-218 -56 0
-219 -57 0
-118 -58 0
-119 -59 0
-120 -60 0
-124 -58 0
-125 -59 0
-126 -60 0
-148 -58 0
-149 -59 0
-150 -60 0
-157 -58 0
-158 -59 0
-159 -60 0
-217 -58 0
-218 -59 0
-219 -60 0
-67 -61 0
-68 -62 0
-69 -63 0
-184 -61 0
-185 -62 0
-186 -63 0
-202 -61 0
-203 -62 0
-204 -63 0
-208 -61 0
-209 -62 0
-210 -63 0
-142 -64 0
-143 -65 0
-144 -66 0
-175 -64 0
-176 -65 0
-177 -66 0
-190 -64 0
-191 -65 0
-192 -66 0
-145 -67 0
-146 -68 0
-147 -69 0
-223 -67 0
-224 -68 0
-225 -69 0
-76 -70 0
-77 -71 0
-78 -72 0
-79 -70 0
-80 -71 0
-81 -72 0
-88 -70 0
-89 -71 0
-90 -72 0
-118 -70 0
-119 -71 0
-120 -72 0
-97 -73 0
-98 -74 0
-99 -75 0
-133 -73 0
-134 -74 0
-135 -75 0
-148 -73 0
-149 -74 0
-150 -75 0
-157 -73 0
-158 -74 0
-159 -75 0
-205 -73 0
-206 -74 0
-207 -75 0
-103 -76 0
-104 -77 0
-105 -78 0
-115 -76 0
-116 -77 0
-117 -78 0
-151 -76 0
-152 -77 0
-153 -78 0
-169 -76 0
-170 -77 0
-171 -78 0
-94 -79 0
-95 -80 0
-96 -81 0
-163 -79 0
-164 -80 0
-165 -81 0
-175 -79 0
-176 -80 0
-177 -81 0
-181 -79 0
-182 -80 0
-183 -81 0
-208 -82 0
-209 -83 0
-210 -84 0
-97 -85 0
-98 -86 0
-99 -87 0
-148 -85 0
-149 -86 0
-150 -87 0
-181 -85 0
-182 -86 0
-183 -87 0
-196 -85 0
-197 -86 0
-198 -87 0
-202 -85 0
-203 -86 0
-204 -87 0
-205 -85 0
-206 -86 0
-207 -87 0
-145 -88 0
-146 -89 0
-147 -90 0
-175 -88 0
-176 -89 0
-177 -90 0
-211 -88 0
-212 -89 0
-213 -90 0
-220 -88 0
-221 -89 0
-222 -90 0
-100 -91 0
-101 -92 0
-102 -93 0
-142 -94 0
-143 -95 0
-144 -96 0
-175 -94 0
-176 -95 0
-177 -96 0
-187 -94 0
-188 -95 0
-189 -96 0
-211 -94 0
-212 -95 0
-213 -96 0
-223 -94 0
-224 -95 0
-225 -96 0
-133 -97 0
-134 -98 0
-135 -99 0
-163 -97 0
-164 -98 0
-165 -99 0
-223 -97 0
-224 -98 0
-225 -99 0
-103 -100 0
-104 -101 0
-105 -102 0
-169 -100 0
-170 -101 0
-171 -102 0
-190 -100 0
-191 -101 0
-192 -102 0
-196 -100 0
-197 -101 0
-198 -102 0
-199 -100 0
-200 -101 0
-201 -102 0
-112 -103 0
-113 -104 0
-114 -105 0
-136 -103 0
-137 -104 0
-138 -105 0
-187 -103 0
-188 -104 0
-189 -105 0
-145 -106 0
-146 -107 0
-147 -108 0
-184 -106 0
-185 -107 0
-186 -108 0
-205 -106 0
-206 -107 0
-207 -108 0
-166 -109 0
-167 -110 0
-168 -111 0
-127 -112 0
-128 -113 0
-129 -114 0
-148 -112 0
-149 -113 0
-150 -114 0
-169 -112 0
-170 -113 0
-171 -114 0
-181 -112 0
-182 -113 0
-183 -114 0
-160 -115 0
-161 -116 0
-162 -117 0
-166 -115 0
-167 -116 0
-168 -117 0
-187 -115 0
-188 -116 0
-189 -117 0
-199 -115 0
-200 -116 0
-201 -117 0
-211 -115 0
-212 -116 0
-213 -117 0
-217 -115 0
-218 -116 0
-219 -117 0
-142 -118 0
-143 -119 0
-144 -120 0
-151 -118 0
-152 -119 0
-153 -120 0
-184 -118 0
-185 -119 0
-186 -120 0
-166 -121 0
-167 -122 0
-168 -123 0
-157 -124 0
-158 -125 0
-159 -126 0
-184 -124 0
-185 -125 0
-186 -126 0
-211 -124 0
-212 -125 0
-213 -126 0
-190 -127 0
-191 -128 0
-192 -129 0
-199 -127 0
-200 -128 0
-201 -129 0
-163 -133 0
-164 -134 0
-165 -135 0
-169 -133 0
-170 -134 0
-171 -135 0
-178 -136 0
-179 -137 0
-180 -138 0
-184 -136 0
-185 -137 0
-186 -138 0
-202 -136 0
-203 -137 0
-204 -138 0
-166 -139 0
-167 -140 0
-168 -141 0
-208 -139 0
-209 -140 0
-210 -141 0
-169 -142 0
-170 -143 0
-171 -144 0
-193 -142 0
-194 -143 0
-195 -144 0
-199 -148 0
-200 -149 0
-201 -150 0
-154 -151 0
-155 -152 0
-156 -153 0
-205 -151 0
-206 -152 0
-207 -153 0
-220 -151 0
-221 -152 0
-222 -153 0
-205 -154 0
-206 -155 0
-207 -156 0
-169 -163 0
-170 -164 0
-171 -165 0
-172 -163 0
-173 -164 0
-174 -165 0
-223 -163 0
-224 -164 0
-225 -165 0
-178 -166 0
-179 -167 0
-180 -168 0
-190 -166 0
-191 -167 0
-192 -168 0
-211 -175 0
-212 -176 0
-213 -177 0
-190 -181 0
-191 -182 0
-192 -183 0
-193 -187 0
-194 -188 0
-195 -189 0
-220 -187 0
-221 -188 0
-222 -189 0
-214 -193 0
-215 -194 0
-216 -195 0
-220 -196 0
-221 -197 0
-222 -198 0
-208 -199 0
-209 -200 0
-210 -201 0
-217 -211 0
-218 -212 0
-219 -213 0
-220 -214 0
-221 -215 0
-222 -216 0
